30
0   76   78
1   76   77
2   76   77
3   39   39
4   40   39
5   38   38
6   20   19
7   20   20
8   21   19
9   12   11
10   11   12
11   10   12
12   5   6
13   5   5
14   5   7
15   5   3
16   4   5
17   3   4
18   4   2
19   4   2
20   3   3
21   3   1
22   2   1
23   3   1
24   2   2
25   1   2
26   3   3
27   1   1
28   3   3
29   2   1
150
